\ Model TokenExchangeDecomposition
\ LP format - for model browsing. Use MPS format to capture full model detail.
Minimize
  x0
Subject To
 value_conservation: 19161 x0 - 17959 x1 - 10783 x2 = 0
Bounds
 x0 >= 4
Generals
 x0 x1 x2
End
